
  22    0


   0  12 2 3 4 5 6 9 10 11 18 19 20 21 
   4   4 17 16 15 12 
   5   2 14 8 
   3   2 12 7 
   9   2 14 13 
   4   2 14 12 
   1   1 13 
   9   1 12 
   1   1 13 
   9   1 13 
   5   1 12 
   4   1 22
   7   1 22
   2   1 22
   7   1 22
   2   1 22
   9   1 22
  10   1 22
   5   1 22
  10   1 22
   8   1 22
   0   0 
